Minimize
  obj: x0 + x1 + x2 + x3 + x4 + x5 + x6 + x7

Subject To
  c0: x1 + x2 + x3 + x4 + x6 = 39
  c1: x0 + x1 + x3 + x4 = 28
  c2: x1 + x2 + x3 + x4 + x6 + x7 = 48
  c3: x1 + x2 + x3 + x6 = 27
  c4: x3 + x4 + x6 + x7 = 40
  c5: x1 + x3 + x4 + x6 = 32
  c6: x3 + x4 + x6 + x7 = 40
  c7: x0 + x1 + x4 + x5 = 19
  c8: x0 + x1 + x2 + x4 + x5 + x6 = 36

Bounds
  x0 >= 0
  x1 >= 0
  x2 >= 0
  x3 >= 0
  x4 >= 0
  x5 >= 0
  x6 >= 0
  x7 >= 0

Generals
  x0 x1 x2 x3 x4 x5 x6 x7

End
